(declare-const x0 Bool)
(declare-const x1 Bool)
(declare-const x2 Bool)
(declare-const x3 Bool)
(declare-const x4 Bool)
(declare-const x5 Bool)
(declare-const x6 Bool)
(declare-const x7 Bool)
(declare-const x8 Bool)
(declare-const x9 Bool)
(declare-const x10 Bool)
(declare-const x11 Bool)
(declare-const x12 Bool)
(declare-const x13 Bool)
(declare-const x14 Bool)
(declare-const x15 Bool)
(declare-const x16 Bool)
(declare-const x17 Bool)
(declare-const x18 Bool)
(declare-const x19 Bool)
(declare-const x20 Bool)
(declare-const x21 Bool)
(declare-const x22 Bool)
(declare-const x23 Bool)
(declare-const x24 Bool)
(declare-const x25 Bool)
(declare-const x26 Bool)
(declare-const x27 Bool)
(declare-const x28 Bool)
(declare-const x29 Bool)
(declare-const x30 Bool)
(declare-const x31 Bool)
(declare-const x32 Bool)
(assert (and (= x4 true) (= (or x8 x8) (or true true))))
(assert (= (and false x23) (= (and x27 x1) (and (or x11 x29) (= x9 true)))))
(assert (= (and (or x23 (or x30 false)) (= (and true (= true x29)) (or (or false false) (= true true)))) (= (= (= x6 x22) (or true true)) (= (or x4 x30) false))))
(assert (and (and (and x18 true) x14) (and (or false x7) (and true x6))))
(assert (or (or (= (= true true) x31) (and false x26)) (or x4 x2)))
(assert (or x22 (or false x9)))
(assert (and false x31))
(assert (or (= (and (and x3 false) (= (= x11 x5) x22)) (or x21 (= false x25))) (= (or (= x25 false) x26) (and (or false false) x20))))
(assert (or (= x31 (or true false)) (or (= (= true x14) (or false true)) (and (= (and x25 true) (and true false)) true))))
(assert (or (= (= (or (and x10 x32) true) (or true false)) (= (= (and x30 (= x13 x27)) (and false (or (and (= x31 true) x11) (and false false)))) (and (and x25 (or x12 true)) (and x23 false)))) (= (and x26 x13) (= (= x32 (and x32 x16)) (and true (= x23 x30))))))
(check-sat)
